NAME : portcgen-15-6
COMMENT : portcgen N=15, seed=6
TYPE : TSP
DIMENSION : 15
EDGE_WEIGHT_TYPE : EUC_2D
NODE_COORD_SECTION
1 -95696 202920
2 81464 -174729
3 221945 13085
4 125442 274330
5 -159632 182427
6 82503 -127607
7 346514 580216
8 196714 -238154
9 -128624 -178927
10 66886 -360398
11 161615 -85534
12 -196221 135462
13 -239353 -361393
14 4159 37358
15 167534 369503
